%mem=28GB
%nprocshared=12
%chk=TS_3e_35_cbs_on_7_13_14_1_scan_b3631gd.chk
#p ub3lyp/6-31g(d) opt=modredundant nosym

using ub3lyp/6-31G(d) to scan

0 2
C -3.23230200 -1.13994600 -0.57599700
H -2.81455000 -2.14834800 -0.48459900
H -4.22469800 -1.15589400 -0.11738400
C -2.33858600 -0.09173300 0.10050000
C -2.18606500 -0.35394200 1.60349600
H -1.53347600 0.39112600 2.06343900
H -3.15871500 -0.30370300 2.10086100
C -0.99524200 0.02820400 -0.63486700
H -1.19101800 0.27058700 -1.68375200
C -0.00522000 -1.14684900 -0.48653500
H -0.45116500 -2.01516200 0.00626300
H 0.37263300 -1.46971900 -1.45995600
C 1.08673800 -0.51041700 0.33317300
C 2.42657300 -0.16183500 -0.23045300
H 2.28944400 0.07837400 -1.29150700
H -3.36286000 -0.92728600 -1.64137100
H -1.76939700 -1.34600200 1.80851400
O -0.15361900 1.07874700 -0.08598300
O -0.94779900 2.47522600 -0.56381500
H -0.90670900 2.89739800 0.30440200
H -2.80945000 0.88849200 -0.02234500
C 3.02476400 1.06790500 0.46743700
H 3.17089800 0.87853900 1.53629100
H 3.99771700 1.32295700 0.03798400
H 2.36054400 1.92647100 0.35753100
C 3.37972300 -1.37731800 -0.14023600
H 2.97024100 -2.24988200 -0.65652500
H 4.34501200 -1.13851200 -0.59683200
H 3.55995100 -1.65515400 0.90279500
H 1.00464600 -0.56048000 1.41545800

D 10 13 14 22 S 40 10.0





