# m062x/def2tzvp opt freq

Title Card Required

0 1
 H                 -3.90089340   -1.41943732   -0.05891992
 H                 -4.50089340   -1.41943732   -0.05891992

 
 
 
