%mem=28GB
%nprocshared=12
%chk=C4H10_2_1_opt_631gd.chk
#p ub3lyp/6-31g(d) opt freq

using ub3lyp/6-31G(d) to scan

0 1
 C                 -3.81369417    0.47770700    0.00000000
 H                 -3.45703974   -0.53110300    0.00000000
 H                 -3.45702133    0.98210519   -0.87365150
 H                 -4.88369417    0.47772018    0.00000000
 C                 -3.30035195    1.20366327    1.25740497
 H                 -3.65684700    2.21252960    1.25730739
 C                 -1.76035198    1.20340050    1.25754524
 H                 -1.40352000    1.70765369    0.38387502
 H                 -1.40367913    1.70783115    2.13117801
 H                 -1.40385727    0.19453406    1.25768017
 C                 -3.81392361    0.47786875    2.51480962
 H                 -3.45722896    0.98225205    3.38846082
 H                 -4.88392359    0.47807385    2.51472482
 H                 -3.45745037   -0.53100529    2.51489413





