12 0
 O 1.13124300 -1.04926800 0.13633100
 H 0.00341700 -1.25104100 -0.00215200
 O 1.23696900 0.26449200 -0.37278600
 C 0.27522800 1.05793300 0.30803200
 H 0.49383400 2.08907600 0.02208700
 H 0.39512800 0.93498400 1.38924200
 C -1.13808900 0.62743500 -0.15488400
 H -1.86963000 1.20349100 0.42763700
 H -1.25212600 0.90886700 -1.20408800
 C -1.34582200 -0.85492300 0.02054000
 H -1.82201400 -1.39409800 -0.79415100
 H -1.64219800 -1.19574800 1.01094200
%mem=15GB
%nprocshared=6
#p UB3LYP/6-31G(d) opt=tight int=ultrafine
0 2




