#p M062X/def2TZVP EmpiricalDispersion=GD3

Title Card Required

0 3
 C                 0.00000000   0.00000000    0.00000000


 
 
 
 