%mem=28GB
%nprocshared=12
%chk=C4H10_1_1_opt_631gd.chk
#p ub3lyp/6-31g(d) opt freq

using ub3lyp/6-31G(d) to scan

0 1
 C                 -2.47611488   -0.84410741    0.00009145
 H                 -2.12081224   -1.85339389    0.00100202
 H                 -2.11809164   -0.34073756   -0.87360080
 H                 -3.54611359   -0.84266163   -0.00073642
 C                 -1.96277270   -0.11804656    1.25743606
 H                 -2.31807535    0.89123992    1.25652549
 H                 -2.32079595   -0.62141641    2.13112831
 C                 -0.42277457   -0.12012741    1.25862758
 H                 -0.06475133    0.38324244    0.38493532
 H                 -0.06747192   -1.12941389    1.25953814
 C                  0.09056761    0.60593344    2.51597218
 H                 -0.26745563    0.10256359    3.38966443
 H                  1.16056631    0.60448766    2.51680006
 H                 -0.26473504    1.61521992    2.51506161





