%mem=28GB
%nprocshared=12
%chk=D:\hetanjin\smallSoftware\github\storageFiles\Templates\Template13\freq\result_C3H7_45_b3631gd.chk
#p freq ub3lyp/6-31g(d) scrf=check guess=tcheck
geom=(connectivity,allcheck) genchk

RO2_3_2_opt_ub3631gd using cbs-qb3 to calculate energy

0 2
 C                  1.22802500   -0.24459900   -0.04046800
 H                  1.30125400   -0.76494500   -1.00198800
 H                  1.28370000   -1.00075700    0.75204800
 H                  2.10140400    0.40956300    0.05965200
 C                 -0.08020000    0.55407000    0.05506600
 H                 -0.07837400    1.11845500    1.00739100
 H                 -0.10405100    1.32509900   -0.72872100
 C                 -1.30462900   -0.29392900   -0.03355700
 H                 -1.30227800   -1.31062900    0.35006800
 H                 -2.26083800    0.12995900   -0.32469800

 1 2 1.0 3 1.0 4 1.0 5 1.0
 2
 3
 4
 5 6 1.0 7 1.0 8 1.0
 6
 7
 8 9 1.0 10 1.0
 9
 10

