%mem=30GB
%nprocshared=8
%chk=D:\hetanjin\smallSoftware\github\storageFiles\Templates\Template13\freq\result_C9H19O2_3_26.chk
# opt=calcfc freq cbs-qb3 geom=connectivity

C9H19O2_3_26 using CBS-QB3 to cal. energy

0 2
 C                 -3.61751300    0.03576200    0.04687800
 H                 -3.66769400    1.03230100   -0.39269200
 H                 -3.71312500    0.14250800    1.13230200
 H                 -4.47877200   -0.53535700   -0.30963900
 C                 -2.31376200   -0.68767500   -0.32145700
 H                 -2.26656700   -0.77897800   -1.41396400
 C                  0.27194100   -0.44481000   -0.31931900
 H                  0.29672700   -0.46534000   -1.41582700
 H                  0.33336900   -1.48260100    0.01538800
 C                  1.46831000    0.35240100    0.21698800
 H                  1.47721200    0.29876500    1.31403500
 H                  1.33104800    1.40771700   -0.03695600
 C                  2.83890300   -0.10473900   -0.31737100
 H                  2.79375200   -0.07002600   -1.41462500
 C                  3.93733900    0.86710500    0.13557400
 H                  4.02960600    0.87047000    1.22718400
 H                  4.91011100    0.58634400   -0.27818600
 H                  3.71928300    1.89039500   -0.18295100
 C                 -2.29943400   -2.10069000    0.28507000
 H                 -2.26194000   -2.05638000    1.37872100
 H                 -3.21231600   -2.63469900    0.00969400
 H                 -1.45406100   -2.69924200   -0.05922900
 C                  3.18684200   -1.54207000    0.09609700
 H                  4.17329600   -1.82791000   -0.27994100
 H                  3.20838700   -1.63724300    1.18760100
 H                  2.46844300   -2.27017600   -0.28916600
 C                 -1.07849500    0.11829000    0.11947400
 H                 -1.10469300    0.30162500    1.19722300
 O                 -1.17661500    1.45717100   -0.49852700
 O                 -1.44174200    2.41362800    0.36845600

 1 2 1.0 3 1.0 4 1.0 5 1.0
 2
 3
 4
 5 6 1.0 19 1.0 27 1.0
 6
 7 8 1.0 9 1.0 10 1.0 27 1.0
 8
 9
 10 11 1.0 12 1.0 13 1.0
 11
 12
 13 14 1.0 15 1.0 23 1.0
 14
 15 16 1.0 17 1.0 18 1.0
 16
 17
 18
 19 20 1.0 21 1.0 22 1.0
 20
 21
 22
 23 24 1.0 25 1.0 26 1.0
 24
 25
 26
 27 28 1.0 29 1.0
 28
 29 30 1.0
 30

