%mem=30GB
%nprocshared=8
%chk=D:\hetanjin\smallSoftware\Kuaipan\farnesane\dimethylheptane\calculationResult\thermo\Templates\Template13\freq\result_TS_4_4c.chk
#p opt=(calcfc,ts) freq cbs-qb3 geom=connectivity

TS_4_4c using cbs-qb3 to cal. energy

0 2
 C                  3.78460100   -0.27447500    0.88588300
 H                  3.65355300   -1.26955100    1.32026900
 H                  3.84291900    0.44534100    1.71024600
 H                  4.74683000   -0.26011700    0.36614400
 C                  2.63529200    0.07222100   -0.07004500
 H                  2.60972100   -0.68688200   -0.86004000
 C                  1.28632800   -0.00155000    0.66852100
 H                  1.24025500   -0.92862500    1.24841400
 H                  1.21240300    0.82731900    1.38503500
 C                 -1.26440200   -0.12896000    0.52891100
 H                 -1.21434900    0.05302700    1.60455700
 H                 -1.12571400   -1.46366500    0.33199100
 C                 -2.54543100    0.32928900   -0.12979000
 H                 -2.48158600    0.06619900   -1.19221800
 C                 -3.76837000   -0.37775800    0.47305600
 H                 -3.85901900   -0.16300300    1.54317000
 H                 -4.68891900   -0.04342600   -0.01286500
 H                 -3.69650900   -1.46118700    0.35009100
 C                  2.87085800    1.44075700   -0.72556400
 H                  2.88434600    2.23738700    0.02704800
 H                  3.83227200    1.46150500   -1.24625900
 H                  2.10056900    1.68723100   -1.46110100
 C                 -2.69125000    1.86342400   -0.02505700
 H                 -3.59162700    2.19443800   -0.55049300
 H                 -2.77673000    2.17653900    1.02021600
 H                 -1.83840000    2.38567400   -0.46609900
 C                  0.05811300    0.03299900   -0.24077200
 H                  0.05966000    0.91978300   -0.88279300
 O                  0.02932700   -1.07292400   -1.17447300
 O                 -0.41734200   -2.16628500   -0.37879800

 1 2 1.0 3 1.0 4 1.0 5 1.0
 2
 3
 4
 5 6 1.0 7 1.0 19 1.0
 6
 7 8 1.0 9 1.0 27 1.0
 8
 9
 10 11 1.0 13 1.0 27 1.0
 11
 12
 13 14 1.0 15 1.0 23 1.0
 14
 15 16 1.0 17 1.0 18 1.0
 16
 17
 18
 19 20 1.0 21 1.0 22 1.0
 20
 21
 22
 23 24 1.0 25 1.0 26 1.0
 24
 25
 26
 27 28 1.0 29 1.0
 28
 29
 30

