%mem=30GB
%nprocshared=8
%chk=D:\hetanjin\smallSoftware\github\storageFiles\Templates\Template13\freq\result_C9H18O_12_6.chk
#p opt=calcfc freq cbs-qb3 geom=connectivity

C9H18O_12_6 using cbs-qb3 to cal. energy

0 1
 C                 -3.57452700   -1.04090100   -0.32324800
 H                 -3.66238800   -1.87033000    0.38522500
 H                 -3.45185100   -1.46381700   -1.32492000
 H                 -4.50329400   -0.46813700   -0.30761700
 C                 -2.39498800   -0.15660000    0.02166900
 C                 -1.04025300   -0.84703500   -0.04969300
 H                 -1.05883800   -1.70784700    0.63070500
 H                 -0.94532300   -1.26462800   -1.06074800
 C                  0.18389700    0.02583100    0.24417000
 H                  0.17898000    0.32974700    1.29772200
 H                  0.10738500    0.94039200   -0.34956000
 C                  1.50254100   -0.69958800   -0.05218700
 H                  1.53888100   -0.96833200   -1.11682700
 H                  1.51573900   -1.64795100    0.50018100
 C                  2.77656000    0.08920900    0.30472400
 H                  2.69560200    0.39042300    1.35849400
 C                  4.01844200   -0.80285100    0.16875700
 H                  4.14673400   -1.13794500   -0.86637800
 H                  4.92663100   -0.26580600    0.45750100
 H                  3.94095400   -1.69357200    0.79931100
 C                 -2.62043300    1.03691200    0.85213300
 H                 -3.62288500    1.24543800    1.22046400
 H                 -1.81478200    1.45574600    1.44832800
 C                  2.93360000    1.36248400   -0.53926300
 H                  3.84620400    1.90136900   -0.26812000
 H                  2.99952700    1.11440600   -1.60457300
 H                  2.09483600    2.05029000   -0.40958900
 O                 -2.45514400    1.15697300   -0.56899500

 1 2 1.0 3 1.0 4 1.0 5 1.0
 2
 3
 4
 5 6 1.0 21 1.0 28 1.0
 6 7 1.0 8 1.0 9 1.0
 7
 8
 9 10 1.0 11 1.0 12 1.0
 10
 11
 12 13 1.0 14 1.0 15 1.0
 13
 14
 15 16 1.0 17 1.0 24 1.0
 16
 17 18 1.0 19 1.0 20 1.0
 18
 19
 20
 21 22 1.0 23 1.0 28 1.0
 22
 23
 24 25 1.0 26 1.0 27 1.0
 25
 26
 27
 28

