%mem=30GB
%nprocshared=8
%chk=D:\hetanjin\smallSoftware\github\storageFiles\Templates\Template13\freq\result_C9H18O_25_26.chk
#p opt=calcfc freq cbs-qb3 geom=connectivity

C9H18O_25_26 using cbs-qb3 to cal. energy

0 1
 C                  2.24406100    0.01545300    1.39904400
 H                  1.62635000    0.66973500    2.01995000
 H                  3.25271400    0.43742600    1.36780900
 H                  2.29219000   -0.96299300    1.88282400
 C                  1.36464400    1.23880300   -0.66136700
 H                  2.10723700    1.99652600   -0.40154800
 H                  1.36618600    1.13157400   -1.74905100
 C                 -0.05059700    1.58462700   -0.15682000
 H                 -0.66095200    2.01247600   -0.95474300
 H                 -0.02449200    2.31546100    0.65420200
 C                 -0.62961400    0.22957900    0.33778600
 H                 -0.77944600    0.26560400    1.42806300
 C                 -1.95291800   -0.19857000   -0.31020900
 H                 -1.79924600   -0.16098000   -1.39707200
 C                 -2.31867800   -1.63810900    0.07308600
 H                 -2.48388900   -1.72216200    1.15307800
 H                 -3.23860200   -1.95074600   -0.42969300
 H                 -1.52020800   -2.32821100   -0.19967700
 C                  2.55001800   -1.02874600   -0.87660400
 H                  3.54150000   -0.58696800   -1.00883400
 H                  2.66997000   -2.00821700   -0.40710700
 H                  2.09578400   -1.17356200   -1.85919100
 C                 -3.08423800    0.77044000    0.06076800
 H                 -4.01840100    0.47524400   -0.42444900
 H                 -3.26002500    0.76846400    1.14207300
 H                 -2.86654500    1.79862300   -0.24022400
 C                  1.66661900   -0.13025900   -0.01747200
 O                  0.37051300   -0.75457600    0.04179100

 1 2 1.0 3 1.0 4 1.0 27 1.0
 2
 3
 4
 5 6 1.0 7 1.0 8 1.0 27 1.0
 6
 7
 8 9 1.0 10 1.0 11 1.0
 9
 10
 11 12 1.0 13 1.0 28 1.0
 12
 13 14 1.0 15 1.0 23 1.0
 14
 15 16 1.0 17 1.0 18 1.0
 16
 17
 18
 19 20 1.0 21 1.0 22 1.0 27 1.0
 20
 21
 22
 23 24 1.0 25 1.0 26 1.0
 24
 25
 26
 27 28 1.0
 28

