%mem=30GB
%nprocshared=8
%chk=D:\hetanjin\smallSoftware\github\storageFiles\Templates\Template13\freq\result_oh.chk
#p opt=calcfc freq cbs-qb3 guess=read geom=(connectivity,check)

optimization and freq

0 2
 O                  0.00000000    0.00000000    0.10835600
 H                  0.00000000    0.00000000   -0.86685100

 1 2 1.0
 2

