%mem=30GB
%nprocshared=8
%chk=D:\hetanjin\smallSoftware\github\storageFiles\Templates\Template13\freq\result_C9H18OOH_2_26_a.chk
#p opt=calcfc freq cbs-qb3 guess=read geom=(connectivity,check)

optimization and freq

0 2
 C                  3.31779000    0.08003200    1.10443800
 H                  3.31436400   -0.97608600    1.37915200
 H                  3.23145800    0.67072600    2.01984700
 H                  4.26934400    0.32188500    0.62508000
 C                  0.79867800    0.00919300    0.81529300
 H                  0.86753500   -1.03607900    1.13180900
 H                  0.69687300    0.61202100    1.72505400
 C                 -0.43246100    0.19352700   -0.07740600
 H                 -0.28742600   -0.37376100   -1.00222600
 H                 -0.51753900    1.24613200   -0.36481500
 C                 -1.72249300   -0.27008800    0.61063900
 H                 -1.89058800    0.32412600    1.51998600
 H                 -1.58540500   -1.30546600    0.94706000
 C                 -2.99052400   -0.20855000   -0.26252100
 H                 -2.78532200   -0.77411500   -1.18168600
 C                 -4.16891300   -0.88563900    0.45127300
 H                 -4.41262500   -0.36333100    1.38315800
 H                 -5.06677500   -0.88335900   -0.17381700
 H                 -3.93864800   -1.92504500    0.70317400
 C                  2.18300600    1.80520000   -0.30515700
 H                  2.52956500    2.58438900    0.36061900
 H                  1.80893800    2.06757500   -1.28524700
 C                 -3.35912000    1.22687600   -0.66437600
 H                 -4.26972000    1.24129400   -1.27057500
 H                 -3.54254400    1.84285300    0.22349400
 H                 -2.56949200    1.70722700   -1.24685800
 C                  2.15123800    0.38533500    0.15457500
 O                  2.32208700   -0.34466700   -1.09476400
 O                  2.22226400   -1.77434400   -0.83377200
 H                  3.12999800   -2.04421300   -1.02546600

 1 2 1.0 3 1.0 4 1.0 27 1.0
 2
 3
 4
 5 6 1.0 7 1.0 8 1.0 27 1.0
 6
 7
 8 9 1.0 10 1.0 11 1.0
 9
 10
 11 12 1.0 13 1.0 14 1.0
 12
 13
 14 15 1.0 16 1.0 23 1.0
 15
 16 17 1.0 18 1.0 19 1.0
 17
 18
 19
 20 21 1.0 22 1.0 27 1.0
 21
 22
 23 24 1.0 25 1.0 26 1.0
 24
 25
 26
 27 28 1.0
 28
 29 30 1.0
 30

