%mem=30GB
%nprocshared=8
%chk=D:\hetanjin\smallSoftware\github\storageFiles\Templates\Template13\freq\result_TS_3_C9H18_3.chk
#p opt=(calcfc,ts) freq cbs-qb3 geom=connectivity

TS_3_C9H18_3 using cbs to cal. energy

0 2
 C                  3.62683700    0.25967200   -0.29305700
 H                  3.49877000    1.33090800   -0.13935800
 H                  3.74581700    0.08194500   -1.36716300
 H                  4.55266400   -0.05197300    0.19813200
 C                  2.43410200   -0.53133100    0.26026700
 H                  2.33457500   -0.31894500    1.33174200
 C                 -0.11408900   -0.30900100    0.20430200
 H                 -0.19191800    0.96830900    0.56714400
 H                 -0.10214100   -0.79072000    1.18407700
 C                 -1.37719700   -0.53333100   -0.62816600
 H                 -1.50344200   -1.60973600   -0.80852600
 H                 -1.22790000   -0.07463300   -1.61235400
 C                 -2.68421900    0.01575400   -0.02201700
 H                 -2.54580700    1.09097300    0.14912200
 C                 -3.84170300   -0.15655100   -1.01471800
 H                 -4.02125000   -1.21651900   -1.22648100
 H                 -4.76972700    0.26339500   -0.61673300
 H                 -3.62974300    0.34201100   -1.96512600
 C                  2.67180600   -2.05214800    0.10586700
 H                  2.75689200   -2.32925300   -0.94954900
 H                  3.60279100   -2.33945400    0.60281400
 H                  1.85696800   -2.63340300    0.54326600
 C                 -3.02336600   -0.63959500    1.32423700
 H                 -3.14285400   -1.72313900    1.21074200
 H                 -3.96078400   -0.24368600    1.72500500
 H                 -2.24865800   -0.46433500    2.07480300
 C                  1.13112500   -0.17746800   -0.40500900
 H                  1.17302400   -0.00770800   -1.47855800
 O                  1.20841500    2.09617900   -0.13963300
 O                  0.15195400    2.21256700    0.56297900

 1 2 1.0 3 1.0 4 1.0 5 1.0
 2
 3
 4
 5 6 1.0 19 1.0 27 1.0
 6
 7 9 1.0 10 1.0 27 1.5
 8
 9
 10 11 1.0 12 1.0 13 1.0
 11
 12
 13 14 1.0 15 1.0 23 1.0
 14
 15 16 1.0 17 1.0 18 1.0
 16
 17
 18
 19 20 1.0 21 1.0 22 1.0
 20
 21
 22
 23 24 1.0 25 1.0 26 1.0
 24
 25
 26
 27 28 1.0
 28
 29 30 1.0
 30

