%mem=30GB
%nprocshared=8
%chk=D:\hetanjin\smallSoftware\github\storageFiles\Templates\Template13\freq\result_C3H6O_2.chk
#p opt=calcfc freq cbs-qb3 geom=connectivity

C3H6O_2 using cbs-qb3 to cal. energy

0 1
 C                 -1.29145200   -0.61344600   -0.00159000
 H                 -2.14135000    0.06194400   -0.08844300
 H                 -1.37638600   -1.18819800    0.92661500
 H                 -1.30176900   -1.33436100   -0.82478000
 C                  1.29145200   -0.61344600    0.00159000
 H                  1.30176900   -1.33436100    0.82478000
 H                  2.14135000    0.06194400    0.08844300
 C                  0.00000000    0.18640700    0.00000000
 O                  0.00000000    1.39551700    0.00000000
 H                  1.37638600   -1.18819800   -0.92661500

 1 2 1.0 3 1.0 4 1.0 8 1.0
 2
 3
 4
 5 6 1.0 7 1.0 8 1.0 10 1.0
 6
 7
 8 9 2.0
 9
 10

