%mem=30GB
%nprocshared=8
%chk=D:\hetanjin\smallSoftware\github\storageFiles\Templates\Template13\freq\result_C9H18OOH_2_26_c.chk
#p opt=calcfc freq cbs-qb3 geom=connectivity

C9H18OOH_2_26_c using cbs-qb3 to cal. energy

0 2
 C                 -3.20876700    0.19403600    1.08656000
 H                 -2.84293100    1.07063800    1.62307900
 H                 -3.41901600   -0.59093800    1.81735600
 H                 -4.14152500    0.45086200    0.57790100
 C                 -0.86925100   -0.64582700    0.74059500
 H                 -0.86429300   -0.75896600    1.82066400
 C                  0.41159600   -0.81924300   -0.00413400
 H                  0.23718700   -0.67558600   -1.07477800
 H                  0.77623400   -1.84846000    0.12707600
 C                  1.51175400    0.16491600    0.45634100
 H                  1.69481500    0.02624000    1.53052000
 H                  1.12292700    1.17994700    0.33499300
 C                  2.84753000    0.04125500   -0.30102900
 H                  2.62681500    0.11478400   -1.37476900
 C                  3.77678400    1.20736700    0.06502800
 H                  4.02371200    1.18901000    1.13239200
 H                  4.71661300    1.15712600   -0.49306200
 H                  3.30805900    2.17148900   -0.15147500
 C                 -2.71180200   -1.43707200   -0.78665600
 H                 -2.96886600   -2.28262800   -0.14554400
 H                 -3.60759300   -1.11673700   -1.32522300
 H                 -1.96688500   -1.76418700   -1.51368400
 C                  3.54822200   -1.30222500   -0.05321300
 H                  4.49734200   -1.35348600   -0.59499000
 H                  3.76735400   -1.43422200    1.01243600
 H                  2.94127100   -2.15133800   -0.37668500
 C                 -2.16306400   -0.28325800    0.07509800
 O                 -1.95029600    0.74026000   -0.94495700
 O                 -1.38147200    1.92763300   -0.32250200
 H                 -2.10508800    2.55363000   -0.45808400

 1 2 1.0 3 1.0 4 1.0 27 1.0
 2
 3
 4
 5 6 1.0 7 1.0 27 1.0
 6
 7 8 1.0 9 1.0 10 1.0
 8
 9
 10 11 1.0 12 1.0 13 1.0
 11
 12
 13 14 1.0 15 1.0 23 1.0
 14
 15 16 1.0 17 1.0 18 1.0
 16
 17
 18
 19 20 1.0 21 1.0 22 1.0 27 1.0
 20
 21
 22
 23 24 1.0 25 1.0 26 1.0
 24
 25
 26
 27 28 1.0
 28
 29 30 1.0
 30

