%mem=30GB
%nprocshared=8
%chk=D:\hetanjin\smallSoftware\github\storageFiles\Templates\Template13\freq\result_TS_2c_23.chk
#p opt=(calcfc,ts) freq cbs-qb3 geom=connectivity

TS_2c_23 using cbs-qb3 to cal. energy

0 2
 C                  3.21210300   -0.90028200   -0.92544700
 H                  3.02112700   -0.65048500   -1.97110200
 H                  3.37460700   -1.97854800   -0.83991700
 H                  4.11775800   -0.37905500   -0.61142200
 C                  0.70003900   -0.74806100   -0.62784200
 H                  0.66091900   -0.81269000   -1.71122900
 C                 -0.59269300   -0.80743600    0.10205200
 H                 -0.44597300   -0.65828700    1.17403700
 H                 -0.99053800   -1.82670100   -0.01870600
 C                 -1.63282900    0.20434700   -0.42610700
 H                 -1.81040800    0.01883400   -1.49337700
 H                 -1.18964600    1.20201100   -0.35577200
 C                 -2.97884600    0.19063600    0.32131000
 H                 -2.76694900    0.33457700    1.38985000
 C                 -3.85291900    1.36462800   -0.14243100
 H                 -4.09776600    1.27280100   -1.20614800
 H                 -4.79471000    1.39960400    0.41268200
 H                 -3.34297400    2.32151900    0.00017500
 C                  2.27201400   -0.76940300    1.42237000
 H                  2.37735700   -1.84624700    1.58082000
 H                  3.18758400   -0.27237300    1.74508400
 H                  1.45489900   -0.39898500    2.04273500
 C                 -3.73159400   -1.13809900    0.16360100
 H                 -4.68706400   -1.11000600    0.69515600
 H                 -3.94596900   -1.34006100   -0.89183100
 H                 -3.16534700   -1.98586200    0.55808900
 C                  2.04456100   -0.44837200   -0.05138200
 O                  1.70989700    0.91021200   -0.27550100
 O                  3.03210700    1.91133700    0.23515900
 H                  2.46804200    2.44980600    0.80686700

 1 2 1.0 3 1.0 4 1.0 27 1.0
 2
 3
 4
 5 6 1.0 7 1.0 27 1.0
 6
 7 8 1.0 9 1.0 10 1.0
 8
 9
 10 11 1.0 12 1.0 13 1.0
 11
 12
 13 14 1.0 15 1.0 23 1.0
 14
 15 16 1.0 17 1.0 18 1.0
 16
 17
 18
 19 20 1.0 21 1.0 22 1.0 27 1.0
 20
 21
 22
 23 24 1.0 25 1.0 26 1.0
 24
 25
 26
 27 28 1.0
 28
 29 30 1.0
 30

