%mem=30GB
%nprocshared=8
%chk=D:\hetanjin\smallSoftware\github\storageFiles\Templates\Template13\freq\result_C9H18OOH_2_26_g.chk
#p opt=calcfc freq cbs-qb3 guess=read geom=(connectivity,check)

optimization and freq

0 2
 C                  3.22695800    0.03604400    1.13157900
 H                  3.19916600   -1.00950700    1.44297000
 H                  3.15374300    0.65830300    2.02718700
 H                  4.18971100    0.23663500    0.65351900
 C                  0.71878600    0.01128800    0.81194500
 H                  0.75723600   -1.03252500    1.13759900
 H                  0.62109900    0.61812000    1.72038500
 C                 -0.50845300    0.21015900   -0.08428900
 H                 -0.34593200   -0.31983900   -1.02839500
 H                 -0.62827200    1.26907300   -0.33469500
 C                 -1.79688200   -0.29666100    0.57203100
 H                 -1.96571800    0.23151900    1.51978100
 H                 -1.67958900   -1.35791500    0.82517400
 C                 -3.06688500   -0.14693400   -0.31102200
 H                 -2.86209000   -0.66938000   -1.25422600
 C                 -4.26600100   -0.83510800    0.36932400
 H                 -4.50151900   -0.34856100    1.32172500
 H                 -5.15818500   -0.78672200   -0.25976200
 H                 -4.04965200   -1.88766200    0.57518200
 C                  2.16338400    1.78547100   -0.34153000
 H                  1.98456300    2.47928400    0.48352200
 H                  3.15396800    1.98600000   -0.75535900
 H                  1.42354300    1.97254200   -1.12047100
 C                 -3.37552500    1.28286100   -0.61990900
 H                 -3.83007200    1.91488400    0.13661800
 H                 -3.08475900    1.74526200   -1.55471300
 C                  2.07814400    0.34272700    0.16596900
 O                  2.25174000   -0.40911300   -1.06522700
 O                  2.18357300   -1.83464500   -0.77809800
 H                  3.09909000   -2.08852400   -0.95403900

 1 2 1.0 3 1.0 4 1.0 27 1.0
 2
 3
 4
 5 6 1.0 7 1.0 8 1.0 27 1.0
 6
 7
 8 9 1.0 10 1.0 11 1.0
 9
 10
 11 12 1.0 13 1.0 14 1.0
 12
 13
 14 15 1.0 16 1.0 24 1.0
 15
 16 17 1.0 18 1.0 19 1.0
 17
 18
 19
 20 21 1.0 22 1.0 23 1.0 27 1.0
 21
 22
 23
 24 25 1.0 26 1.0
 25
 26
 27 28 1.0
 28
 29 30 1.0
 30

