%mem=30GB
%nprocshared=8
%chk=D:\hetanjin\smallSoftware\github\storageFiles\Templates\Template13\freq\result_TS_3_C9H18O_3.chk
#p opt=(calcfc,ts) freq cbs-qb3 geom=connectivity

TS_3_C9H18O_3 using B3LYP/6-311++g(d,p) to calc. freq

0 2
 C                  3.63369600   -0.17808500   -0.01605200
 H                  3.62863500   -1.15679100   -0.49458700
 H                  3.70349300   -0.33134300    1.06451000
 H                  4.52464800    0.36584800   -0.33983800
 C                  2.37263100    0.61961800   -0.37657000
 H                  2.38898300    0.79174900   -1.46522200
 C                 -0.26220400    0.46780800   -0.34723100
 H                 -0.34111800    0.67927400   -1.42566500
 H                 -0.27745500    1.43449000    0.15903800
 C                 -1.45775200   -0.39135800    0.08592500
 H                 -1.43855800   -0.51832200    1.17543900
 H                 -1.33485500   -1.38988600   -0.34031100
 C                 -2.82869200    0.17159100   -0.33224900
 H                 -2.81136200    0.31330100   -1.42194800
 C                 -3.93608500   -0.84186800   -0.01169200
 H                 -3.99880300   -1.02311000    1.06677800
 H                 -4.91312100   -0.48009500   -0.34471500
 H                 -3.74849100   -1.80261900   -0.49922000
 C                  2.36416200    1.98782500    0.32136200
 H                  2.26104900    1.87269600    1.40518300
 H                  3.30695100    2.50731100    0.13345600
 H                  1.55837900    2.63505000   -0.03006100
 C                 -3.13623900    1.52971900    0.31512000
 H                 -3.13081700    1.44870500    1.40791900
 H                 -4.12444500    1.89032700    0.01553800
 H                 -2.41099100    2.29748700    0.03337800
 C                  1.09320800   -0.17763700   -0.12815000
 H                  1.14179500   -0.73664600    1.08253900
 O                  1.16146900   -1.49946700   -0.59707700
 O                  1.20849900   -1.99092200    0.81645300

 1 2 1.0 3 1.0 4 1.0 5 1.0
 2
 3
 4
 5 6 1.0 19 1.0 27 1.0
 6
 7 8 1.0 9 1.0 10 1.0 27 1.0
 8
 9
 10 11 1.0 12 1.0 13 1.0
 11
 12
 13 14 1.0 15 1.0 23 1.0
 14
 15 16 1.0 17 1.0 18 1.0
 16
 17
 18
 19 20 1.0 21 1.0 22 1.0
 20
 21
 22
 23 24 1.0 25 1.0 26 1.0
 24
 25
 26
 27 29 1.0
 28
 29
 30

