%mem=30GB
%nprocshared=8
%chk=D:\hetanjin\smallSoftware\github\storageFiles\Templates\Template13\freq\result_C9H18OOH_3_26_g.chk
#p opt=calcfc freq cbs-qb3 guess=read geom=(connectivity,check)

optimization and freq

0 2
 C                  3.51230100    0.14233400   -0.28950100
 H                  3.54564700   -0.69168600   -0.99514000
 H                  3.75239300   -0.23136800    0.71033600
 H                  4.29916500    0.84372200   -0.58068800
 C                  2.14453700    0.83922500   -0.31536600
 H                  1.95411300    1.15187600   -1.35051000
 C                 -0.38467900    0.39850500   -0.39547800
 H                 -0.40934200    0.26965800   -1.48483500
 H                 -0.47154000    1.47306700   -0.21170700
 C                 -1.56826300   -0.33943300    0.23759200
 H                 -1.56626600   -0.17171900    1.32306400
 H                 -1.43261200   -1.41412900    0.08827500
 C                 -2.93838500    0.08434200   -0.32648700
 H                 -2.91258900   -0.05144800   -1.41667900
 C                 -4.05445900   -0.84523700    0.21448200
 H                 -4.12247200   -0.77457400    1.30414600
 H                 -5.02869200   -0.57608300   -0.20106500
 H                 -3.84627600   -1.88752000   -0.04720000
 C                  2.17478400    2.09509300    0.57013100
 H                  2.38870300    1.82905400    1.61084700
 H                  2.95619700    2.78350900    0.23723700
 H                  1.22819800    2.64000800    0.55240700
 C                 -3.25438100    1.51657900   -0.03754300
 H                 -3.91645300    2.08505900   -0.68026600
 H                 -2.98713700    1.95359100    0.91955400
 C                  0.97985100   -0.09007900    0.10099000
 H                  0.96979200   -0.20225200    1.19062500
 O                  1.10666200   -1.41836300   -0.45108400
 O                  1.80347400   -2.26273800    0.50406400
 H                  2.65024900   -2.38793800    0.05484000

 1 2 1.0 3 1.0 4 1.0 5 1.0
 2
 3
 4
 5 6 1.0 19 1.0 26 1.0
 6
 7 8 1.0 9 1.0 10 1.0 26 1.0
 8
 9
 10 11 1.0 12 1.0 13 1.0
 11
 12
 13 14 1.0 15 1.0 23 1.0
 14
 15 16 1.0 17 1.0 18 1.0
 16
 17
 18
 19 20 1.0 21 1.0 22 1.0
 20
 21
 22
 23 24 1.0 25 1.0
 24
 25
 26 27 1.0 28 1.0
 27
 28
 29 30 1.0
 30

