%mem=30GB
%nprocshared=8
%chk=D:\hetanjin\smallSoftware\github\storageFiles\Templates\Template13\freq\result_C9H18_3_26.chk
#p opt=calcfc freq cbs-qb3 guess=read geom=(connectivity,check)

optimization and freq

0 1
 C                  3.50111800   -1.02248000    0.17130900
 H                  3.20804000   -2.03592800   -0.11364100
 H                  3.60057200   -0.99650800    1.26175300
 H                  4.48683500   -0.81762700   -0.25740900
 C                 -1.34112200   -0.89220400    0.15888200
 H                 -1.29063500   -0.85598800    1.25399500
 H                 -1.61484200   -1.92254800   -0.10619800
 C                 -2.47317400    0.04161300   -0.33005300
 H                 -2.46486600    0.02094300   -1.42849400
 C                 -3.83930600   -0.47514100    0.13910800
 H                 -3.89754700   -0.48509800    1.23308000
 H                 -4.65075900    0.15913800   -0.22932400
 H                 -4.02397600   -1.49419000   -0.21367600
 C                 -2.24914300    1.49112100    0.11782500
 H                 -3.03092200    2.14869500   -0.27340200
 H                 -2.26804900    1.56559500    1.21104600
 H                 -1.28350600    1.87144500   -0.22290300
 C                  2.91996700    1.43985400    0.04112000
 H                  2.21396300    2.18277400   -0.33818500
 H                  2.99344100    1.57081200    1.12600000
 H                  3.90408000    1.65338100   -0.38697500
 C                  2.46602900    0.01113300   -0.30909400
 H                  2.39010100   -0.06455500   -1.40062500
 C                  1.10589700   -0.28086100    0.27249600
 H                  1.04222900   -0.23791800    1.36154300
 C                  0.01086700   -0.58554800   -0.42256000
 H                  0.07904000   -0.62735100   -1.51078500

 1 2 1.0 3 1.0 4 1.0 22 1.0
 2
 3
 4
 5 6 1.0 7 1.0 8 1.0 26 1.0
 6
 7
 8 9 1.0 10 1.0 14 1.0
 9
 10 11 1.0 12 1.0 13 1.0
 11
 12
 13
 14 15 1.0 16 1.0 17 1.0
 15
 16
 17
 18 19 1.0 20 1.0 21 1.0 22 1.0
 19
 20
 21
 22 23 1.0 24 1.0
 23
 24 25 1.0 26 2.0
 25
 26 27 1.0
 27

