%mem=30GB
%nprocshared=8
%chk=D:\hetanjin\smallSoftware\github\storageFiles\Templates\Template13\freq\result_TS_3_3a.chk
#p opt=(calcfc,ts) freq cbs-qb3 geom=connectivity

TS_3_3a using cbs-qb3 to cal. energy

0 2
 C                 -2.46746600    2.02616100   -0.30074900
 H                 -2.10903400    2.41021400   -1.26081600
 H                 -1.83512900    2.43765800    0.48930100
 H                 -3.48059400    2.40386600   -0.14549900
 C                 -2.46493400    0.48402800   -0.28705100
 H                 -3.17027700    0.13790500   -1.04881700
 C                  0.13779400    0.34211200    0.06853100
 H                  0.00538200    0.07128100    1.11947400
 H                  0.18952400    1.43316600    0.01923800
 C                  1.43977200   -0.27684300   -0.45697200
 H                  1.60862100    0.05168100   -1.49208100
 H                  1.31216200   -1.36225200   -0.49576300
 C                  2.69162800    0.04635100    0.37965600
 H                  2.48644700   -0.26483000    1.41312700
 C                  3.89291600   -0.76689300   -0.12216800
 H                  4.14256600   -0.49829500   -1.15461700
 H                  4.78001900   -0.58408000    0.49127800
 H                  3.68358700   -1.84004300   -0.09908200
 C                 -2.89993600   -0.08456400    1.04195700
 H                 -2.47439300    0.37220400    1.93463000
 H                 -3.94805800   -0.35610600    1.14514000
 H                 -2.21164900   -1.30908500    0.98030000
 C                  3.02399100    1.54540900    0.39533500
 H                  3.92640700    1.73954300    0.98227200
 H                  3.20458100    1.91399700   -0.62091200
 H                  2.21817400    2.14295300    0.82908900
 C                 -1.08671900   -0.10910600   -0.72954100
 H                 -0.93869800    0.11755300   -1.79121600
 O                 -1.24883000   -1.53749800   -0.74392500
 O                 -1.37515900   -1.99466000    0.59029600

 1 2 1.0 3 1.0 4 1.0 5 1.0
 2
 3
 4
 5 6 1.0 19 1.0 27 1.0
 6
 7 8 1.0 9 1.0 10 1.0 27 1.0
 8
 9
 10 11 1.0 12 1.0 13 1.0
 11
 12
 13 14 1.0 15 1.0 23 1.0
 14
 15 16 1.0 17 1.0 18 1.0
 16
 17
 18
 19 20 1.0 21 1.0
 20
 21
 22
 23 24 1.0 25 1.0 26 1.0
 24
 25
 26
 27 28 1.0 29 1.0
 28
 29
 30

