%mem=30GB
%nprocshared=8
%chk=D:\hetanjin\smallSoftware\github\storageFiles\Templates\Template13\freq\result_C9H18OOH_3_26_b.chk
#p opt=calcfc freq cbs-qb3 guess=read geom=(connectivity,check)

optimization and freq

0 2
 C                  2.69790000   -0.82557900    1.38096200
 H                  2.35439500   -0.00662200    2.01698900
 H                  3.79072400   -0.88368500    1.45091600
 H                  2.31680100   -1.76345700    1.81812300
 C                  2.24912500   -0.64811100   -0.03515200
 C                 -0.27941000   -0.38711500    0.19569300
 H                 -0.24108600   -0.40642100    1.29093700
 H                 -0.32443800   -1.42912100   -0.13594000
 C                 -1.51916100    0.38565800   -0.27344800
 H                 -1.58767800    0.32738600   -1.36838600
 H                 -1.37828100    1.44201300   -0.02947600
 C                 -2.84960100   -0.09438200    0.33659200
 H                 -2.74688300   -0.05052300    1.42976100
 C                 -3.99056900    0.85191400   -0.06245100
 H                 -4.14154900    0.84511800   -1.14757000
 H                 -4.93408300    0.55552600    0.40519000
 H                 -3.77554100    1.88168100    0.23674700
 C                  2.76913700   -1.57599600   -1.08363500
 H                  2.57728000   -1.19927200   -2.09235500
 H                  3.84850600   -1.73531200   -0.97867000
 H                  2.30698700   -2.57609200   -1.02010300
 C                 -3.18989800   -1.54157900   -0.04752900
 H                 -4.14680100   -1.84646500    0.38599700
 H                 -3.27111000   -1.64497300   -1.13553800
 H                 -2.43376000   -2.25012200    0.29981300
 C                  1.04588900    0.20251200   -0.32807200
 H                  0.96599200    0.36868500   -1.40885600
 O                  1.13746000    1.49589700    0.30588800
 O                  2.14743400    2.26933100   -0.38557100
 H                  2.94090700    2.04589700    0.12212400

 1 2 1.0 3 1.0 4 1.0 5 1.0
 2
 3
 4
 5 18 1.0 26 1.0
 6 7 1.0 8 1.0 9 1.0 26 1.0
 7
 8
 9 10 1.0 11 1.0 12 1.0
 10
 11
 12 13 1.0 14 1.0 22 1.0
 13
 14 15 1.0 16 1.0 17 1.0
 15
 16
 17
 18 19 1.0 20 1.0 21 1.0
 19
 20
 21
 22 23 1.0 24 1.0 25 1.0
 23
 24
 25
 26 27 1.0 28 1.0
 27
 28
 29 30 1.0
 30

