%chk=J:\!tmp\Template21\test\O2.chk
# b3lyp/6-31g(d) opt freq

Title Card Required

0 3
 C                 0.00000000   0.00000000    0.00000000


 
 
 
 