# m062x/def2tzvp opt freq

Title Card Required

0 3
 C                 0.00000000   0.00000000    0.00000000


 
 
 
 