%chk=C:\hetanjin\Templates\Template21\test\H2.chk
# b3lyp/6-31g(d) opt freq

Title Card Required

0 1
 H                 -3.90089340   -1.41943732   -0.05891992
 H                 -4.50089340   -1.41943732   -0.05891992

 
 
 
