%chk=J:\!tmp\Template21\test\O2.chk
# b3lyp/6-31g(d) opt freq

Title Card Required

0 3
 O                 -2.67708341   -0.39583333    0.00000000
 O                 -3.83868341   -0.39583333    0.00000000


 
 
 
 