# m062x/def2tzvp opt freq

Title Card Required

0 3
 O                 -2.67708341   -0.39583333    0.00000000
 O                 -3.83868341   -0.39583333    0.00000000


 
 
 
 