%mem=28GB
%nprocshared=12
%chk=C3H7OOH_2_3_opt_M06.chk
#p M062X/def2TZVP

using ub3lyp/6-31G(d) to scan

0 1
C	0.451277	1.475875	0.103187
H	1.252576	2.011833	-0.418062
H	0.633289	1.549260	1.182143
H	-0.494989	1.972742	-0.130091
C	0.408144	0.014150	-0.335385
H	0.236151	-0.044501	-1.418872
C	1.670039	-0.763426	0.030412
H	1.835008	-0.746070	1.113436
H	1.588916	-1.805917	-0.291437
H	2.540885	-0.312973	-0.457295
O	-0.648859	-0.706998	0.317622
O	-1.912649	-0.190526	-0.191812
H	-2.276527	0.196228	0.624414





