%mem=15GB
%nprocshared=6
#p freq ub3lyp/6-31g(d) scrf=check guess=tcheck
geom=(connectivity,allcheck) genchk

Title Card Required

0 3
 O                  0.00000000    0.00000000    0.60726800
 O                  0.00000000    0.00000000   -0.60726800

 1 2 1.5
 2

