%mem=28GB
%nprocshared=12
%chk=C4H9OH_1_3_opt_M06.chk
#p M062X/def2TZVP

using ub3lyp/6-31G(d) to scan

0 1
C	2.520240	-0.296416	-0.000004
H	2.576200	-0.942491	-0.884678
H	2.576246	-0.942416	0.884721
H	3.407223	0.347519	-0.000056
C	1.229679	0.529418	0.000000
H	1.219839	1.190503	0.878509
H	1.219826	1.190476	-0.878526
C	-0.034703	-0.338672	0.000010
H	-0.040792	-0.995724	0.880019
H	-0.040801	-0.995739	-0.879988
C	-1.320352	0.477156	0.000001
H	-1.345851	1.132014	-0.887790
H	-1.345862	1.132012	0.887793
O	-2.419877	-0.429714	-0.000004
H	-3.236197	0.092650	-0.000014





