%chk=D:\hetanjin\smallSoftware\Kuaipan\farnesane\dimethylheptane\calculationResult\thermo\Templates\Template13\test\test.chk
# hf/3-21g 

Title Card Required

0 1
c	0.00 	0.00 	0.00 
h	0.00 	0.00 	1.00 
c	0.00 	0.00 	2.05 
h	0.00 	0.00 	3.15 
c	0.00 	0.00 	4.30 
h	0.00 	0.00 	5.50 
c	0.00 	0.00 	6.75 
h	0.00 	0.00 	8.05 
c	0.00 	0.00 	9.40 
h	0.00 	0.00 	10.80 
c	0.00 	0.00 	12.25 
h	0.00 	0.00 	13.75 
c	0.00 	0.00 	15.30 
h	0.00 	0.00 	16.90 
c	0.00 	0.00 	18.55 
h	0.00 	0.00 	20.25 
c	0.00 	0.00 	22.00 
h	0.00 	0.00 	23.80 
c	0.00 	0.00 	25.65 
h	0.00 	0.00 	27.55 
c	0.00 	0.00 	29.50 
h	0.00 	0.00 	31.50 
c	0.00 	0.00 	33.55 
h	0.00 	0.00 	35.65 
c	0.00 	0.00 	37.80 
h	0.00 	0.00 	40.00 
c	0.00 	0.00 	42.25 
h	0.00 	0.00 	44.55 
c	0.00 	0.00 	46.90 
h	0.00 	0.00 	49.30 
c	0.00 	0.00 	51.75 
h	0.00 	0.00 	54.25 
c	0.00 	0.00 	56.80 
h	0.00 	0.00 	59.40 
c	0.00 	0.00 	62.05 
h	0.00 	0.00 	64.75 
c	0.00 	0.00 	67.50 
h	0.00 	0.00 	70.30 
c	0.00 	0.00 	73.15 
h	0.00 	0.00 	76.05 
c	0.00 	0.00 	79.00 
h	0.00 	0.00 	82.00 
c	0.00 	0.00 	85.05 
h	0.00 	0.00 	88.15 
c	0.00 	0.00 	91.30 
h	0.00 	0.00 	94.50 
c	0.00 	0.00 	97.75 
h	0.00 	0.00 	101.05 
c	0.00 	0.00 	104.40 
h	0.00 	0.00 	107.80 
c	0.00 	0.00 	111.25 
h	0.00 	0.00 	114.75 
c	0.00 	0.00 	118.30 
h	0.00 	0.00 	121.90 
c	0.00 	0.00 	125.55 
h	0.00 	0.00 	129.25 
c	0.00 	0.00 	133.00 
h	0.00 	0.00 	136.80 
c	0.00 	0.00 	140.65 
h	0.00 	0.00 	144.55 
c	0.00 	0.00 	148.50 
h	0.00 	0.00 	152.50 
c	0.00 	0.00 	156.55 
h	0.00 	0.00 	160.65 


