%mem=28GB
%nprocshared=12
%chk=D:\hetanjin\smallSoftware\github\storageFiles\Templates\Template20\rotation\tmp_TS_2d_1_11_5_27_3_scan_b3631gd.chk
#p scan ub3lyp/6-31g(d) geom=connectivity nosym

using ub3lyp/6-31G(d) to scan

0 2
 C                  0.00000000    0.00000000    0.00000000
 H                  0.00000000    0.00000000    1.09326100
 H                  1.03481900    0.00000000   -0.34467400
 H                 -0.50175900   -0.90584100   -0.35374900
 C                 -0.74393100    1.23746600   -0.51583300
 C                 -2.21058000    1.30820200   -0.09506500
 H                 -2.66826900    2.19977600   -0.52346400
 H                 -2.25803800    1.39428200    0.99483900
 H                 -2.77173800    0.42205700   -0.39802600
 C                 -0.65819700    1.09665000   -2.29784800
 C                 -1.66523300    0.29514900   -2.88693500
 C                 -3.00297700    0.78086400   -3.33300200
 C                 -3.31094100    0.47287000   -4.82439500
 C                 -4.76820500    0.82221700   -5.15074500
 C                 -2.34228300    1.20127600   -5.76407100
 H                  0.35217500    0.70136300   -2.38594500
 H                 -0.69646900    2.15771800   -2.53215300
 H                 -1.48481600   -0.77324500   -2.99698000
 H                 -3.78796900    0.29659700   -2.73258600
 H                 -3.09281500    1.85890200   -3.16074300
 H                 -3.18041200   -0.60775900   -4.96890100
 H                 -2.55380600    0.95698300   -6.80888400
 H                 -2.43326300    2.28693200   -5.65066500
 H                 -1.30295200    0.93253400   -5.55902500
 H                 -5.46561700    0.27190700   -4.51246700
 H                 -4.95499100    1.89168500   -5.00675100
 H                 -5.00478600    0.58203300   -6.19110200
 O                 -0.03933700    2.31539300   -0.20054500
 O                 -0.67178300    3.71438700   -1.16923000
 H                 -0.18115700    4.31118600   -0.58897900

 1 2 1.0 3 1.0 4 1.0 5 1.0
 2
 3
 4
 5 6 1.0 28 1.5
 6 7 1.0 8 1.0 9 1.0
 7
 8
 9
 10 11 1.5 16 1.0 17 1.0
 11 12 1.0 18 1.0
 12 13 1.0 19 1.0 20 1.0
 13 14 1.0 15 1.0 21 1.0
 14 25 1.0 26 1.0 27 1.0
 15 22 1.0 23 1.0 24 1.0
 16
 17
 18
 19
 20
 21
 22
 23
 24
 25
 26
 27
 28
 29 30 1.0
 30

