12 3
 C -2.29723400 -0.10580000 0.15594700
 H -2.34624100 -0.15272600 1.24780300
 H -2.66453700 0.87747700 -0.15299000
 H -2.98717400 -0.85473500 -0.23877300
 C -0.87464300 -0.35954800 -0.35093800
 H -0.53071800 -1.35070000 -0.04315200
 H -0.85067200 -0.33369100 -1.44491600
 C 0.11072400 0.66721600 0.18633000
 H -0.11191500 1.67811100 -0.16229200
 H 0.16526400 0.65379800 1.27702700
 O 1.45903800 0.41876300 -0.31555000
 O 2.00257600 -0.63485600 0.26170700
#torsion 1 definition
 1 5
 4
 1 2 3 4 
 2
 0. 60.0
#torsion 2 definition
 5 8
 7
 5 1 2 3 4 6 7 
 3
 0. 120.0 -120.0
#torsion 3 definition
 8 11
 10
 8 5 1 2 3 4 6 7 9 10 
 3
 0. 120.0 -120.0
%mem=15GB
%nprocshared=6
#p UB3LYP/6-31G(d) opt=tight int=ultrafine
0 2




