%mem=15GB
%nprocshared=6
#p freq rb3lyp/6-31g(d) scrf=check guess=tcheck
geom=(connectivity,allcheck) genchk

Title Card Required

0 1
 H                  0.00000000    0.00000000    0.37142000
 H                  0.00000000    0.00000000   -0.37142000

 1
 2

