%mem=28GB
%nprocshared=12
%chk=C3H8_1_opt_631gd.chk
#p ub3lyp/6-31g(d) opt freq

using ub3lyp/6-31G(d) to scan

0 1
 C                 -3.20859880   -0.12741363    0.00001434
 H                 -2.85195518   -1.13622746    0.00005943
 H                 -2.85191536    0.37694385   -0.87365635
 H                 -4.27859879   -0.12738918    0.00000792
 C                 -2.69525641    0.59859114    1.25739123
 H                 -3.05190002    1.60740497    1.25734613
 H                 -3.05193984    0.09423366    2.13106191
 C                 -1.15525641    0.59855595    1.25740047
 H                 -0.79858346    1.10298784    2.13103247
 H                 -0.79861280   -0.41025787    1.25744557
 H                 -0.79857298    1.10291343    0.38372979





