#p M062X/def2TZVP EmpiricalDispersion=GD3

Title Card Required

0 3
 O                  0.00000000    0.00000000    0.60726800
 O                  0.00000000    0.00000000   -0.60726800



 
 
 
 