12 4
 O 1.84194100 -0.71914900 0.15683500
 H 2.56348300 -0.39781300 0.71442100
 O 1.31297800 0.54979700 -0.32276700
 C -0.00056500 0.69050700 0.20720600
 H -0.26825800 1.71625300 -0.06486000
 H 0.03069500 0.61526700 1.30138600
 C -1.00143900 -0.31110300 -0.38108700
 H -1.02400200 -0.19217100 -1.46838900
 H -0.59944400 -1.31767500 -0.18805100
 C -2.36357200 -0.16729500 0.20170700
 H -2.49677100 -0.07127300 1.27366300
 H -3.25159300 -0.27042600 -0.40766800
#torsion 1 definition
 1 3
 2
 1 2 
 3
 0. 120.0 -120.0
#torsion 2 definition
 3 4
 3
 3 1 2 
 3
 0. 120.0 -120.0
#torsion 3 definition
 4 7
 6
 4 3 1 2 5 6 
 3
 0. 120.0 -120.0
#torsion 4 definition
 7 10
 9
 7 4 3 1 2 5 6 8 9 
 3
 0. 120.0 -120.0
%mem=15GB
%nprocshared=6
#p UB3LYP/6-31G(d) opt=tight int=ultrafine
0 2




