%chk=F:\ResearchData\newGroupAdditivityFrog2\Template21\Gjfs\C10H22_57_r019.chk
# hf/3-21g geom=connectivity

Title Card Required

0 2
 C                 -3.02177851   -0.39087681    0.00000000
 H                 -2.66510567    0.11352138   -0.87365150
 H                 -4.09177851   -0.39086363    0.00000000
 C                 -2.50846280   -1.84280897    0.00000000
 H                 -2.86513788   -2.34720795   -0.87365013
 H                 -1.43846280   -1.84282161   -0.00000236
 H                 -2.86513346   -2.34720692    0.87365253
 C                 -2.50843629    0.33507946    1.25740497
 H                 -2.86670526   -0.16818854    2.13105517
 C                 -0.96843890    0.33262256    1.25881307
 H                 -0.61362063   -0.58483021    1.67986464
 H                 -0.61070416    0.42613548    0.25473080
 C                 -0.45398571    1.51602300    2.09934939
 C                 -0.87716296    2.83956005    1.43544374
 H                 -1.88042975    3.07728489    1.72152528
 H                 -0.22085805    3.62314752    1.75191576
 H                 -0.82422670    2.73784773    0.37160524
 C                 -1.05260146    1.43799903    3.51609617
 H                 -1.01490653    0.42685135    3.86403216
 H                 -0.48908103    2.06362653    4.17634988
 H                 -2.06973801    1.76930780    3.49226907
 C                  1.08226022    1.45390986    2.18704427
 H                  1.49810667    1.50607537    1.20253907
 H                  1.43984812    2.27728453    2.76935437
 H                  1.37621708    0.53521311    2.65017023
 C                 -3.01945228    1.78782193    1.25599826
 H                 -2.51696969    2.34192326    0.49089502
 C                 -4.53554136    1.79842810    0.98588456
 H                 -4.95359102    2.71943200    1.33500672
 H                 -4.71122694    1.70276628   -0.06524977
 H                 -4.99519224    0.98045519    1.50022044

 1 2 1.0 3 1.0 4 1.0 8 1.0
 2
 3
 4 5 1.0 6 1.0 7 1.0
 5
 6
 7
 8 9 1.0 10 1.0 26 1.0
 9
 10 11 1.0 12 1.0 13 1.0
 11
 12
 13 14 1.0 18 1.0 22 1.0
 14 15 1.0 16 1.0 17 1.0
 15
 16
 17
 18 19 1.0 20 1.0 21 1.0
 19
 20
 21
 22 23 1.0 24 1.0 25 1.0
 23
 24
 25
 26 27 1.0 28 1.0
 27
 28 29 1.0 30 1.0 31 1.0
 29
 30
 31

