%chk=F:\ResearchData\newGroupAdditivityFrog2\Template21\Gjfs\test_7.chk
# hf/3-21g geom=connectivity

Title Card Required

0 1
 C                 -3.41940522   -0.30516431    0.00000000
 H                 -3.06275079   -1.31397432    0.00000000
 H                 -3.06273238    0.19923388   -0.87365150
 H                 -4.48940522   -0.30515113    0.00000000
 C                 -2.90606300    0.42079196    1.25740497
 H                 -1.83606302    0.42060939    1.25750243
 H                 -3.26289526   -0.08349385    2.13105625
 C                 -3.41914934    1.87280518    1.25726452
 H                 -3.06130840    2.37739112    0.38419930
 H                 -4.48914861    1.87334591    1.25613883
 C                 -2.90677298    2.59798502    2.51551118
 H                 -1.83677373    2.59742341    2.51664858
 H                 -3.26463275    2.09341264    3.38857653
 C                 -3.41934527    4.05017979    2.51555901
 H                 -4.48934454    4.05074049    2.51444136
 H                 -3.06150204    4.55474657    1.64248365
 C                 -2.90694507    4.77536804    3.77379112
 H                 -1.83694580    4.77481481    3.77490342
 H                 -3.26478042    4.27079592    4.64686663
 C                 -3.41952873    6.22755880    3.77384589
 H                 -4.48952801    6.22811113    3.77273865
 H                 -3.06169794    6.73212955    2.90076773
 C                 -2.90712197    6.95274937    5.03207399
 H                 -1.83712268    6.95219892    5.03317910
 H                 -3.26495013    6.44817700    5.90515229
 C                 -3.41970941    8.40493879    5.03213107
 H                 -4.48970870    8.40548833    5.03102789
 H                 -3.06188325    8.90951070    4.15905168
 C                 -2.90729976    9.13013038    6.29035741
 H                 -1.83730047    9.12958086    6.29145953
 H                 -3.26512505    8.62555809    7.16343694
 C                 -3.41988847   10.58231935    6.29041525
 H                 -4.48988777   10.58286796    6.28931401
 H                 -3.06206433   11.08689148    5.41733516
 C                 -2.90747719   11.30751153    7.54864058
 H                 -1.83747790   11.30696387    7.54974025
 H                 -3.26529961   10.80293843    8.42172082
 C                 -3.42006841   12.75969962    7.54869993
 H                 -4.49006770   12.76024638    7.54760256
 H                 -3.06224829   13.26427215    6.67561842
 C                 -2.90765382   13.48489297    8.80692324
 H                 -1.83765454   13.48432609    8.80803118
 H                 -3.26549204   12.98033350    9.68000487
 C                 -3.42021893   14.93709027    8.80696666
 H                 -4.49021820   14.93765627    8.80585327
 H                 -3.06237668   15.44165141    7.93388764
 C                 -2.90781014   15.66228158   10.06519351
 H                 -1.83781087   15.66171592   10.06630567
 H                 -3.26394420   16.67127540   10.06522438
 H                 -3.26565123   15.15771987   10.93827267

 1 2 1.0 3 1.0 4 1.0 5 1.0
 2
 3
 4
 5 6 1.0 7 1.0 8 1.0
 6
 7
 8 9 1.0 10 1.0 11 1.0
 9
 10
 11 12 1.0 13 1.0 14 1.0
 12
 13
 14 15 1.0 16 1.0 17 1.0
 15
 16
 17 18 1.0 19 1.0 20 1.0
 18
 19
 20 21 1.0 22 1.0 23 1.0
 21
 22
 23 24 1.0 25 1.0 26 1.0
 24
 25
 26 27 1.0 28 1.0 29 1.0
 27
 28
 29 30 1.0 31 1.0 32 1.0
 30
 31
 32 33 1.0 34 1.0 35 1.0
 33
 34
 35 36 1.0 37 1.0 38 1.0
 36
 37
 38 39 1.0 40 1.0 41 1.0
 39
 40
 41 42 1.0 43 1.0 44 1.0
 42
 43
 44 45 1.0 46 1.0 47 1.0
 45
 46
 47 48 1.0 49 1.0 50 1.0
 48
 49
 50

