%chk=F:\ResearchData\newGroupAdditivityFrog2\Template21\Gjfs\C20H42_2.chk
# hf/3-21g geom=connectivity

Title Card Required

0 1
 C                  0.38950717    4.96820342    0.00000000
 H                  0.74618001    5.47260161    0.87365150
 H                  0.74618001    5.47260161   -0.87365150
 H                 -0.68049283    4.96821661    0.00000000
 C                  0.90282288    3.51627127    0.00000000
 H                  0.54614816    3.01187188   -0.87365004
 C                  2.44282288    3.51625307   -0.00000377
 H                  2.79947731    2.50744309    0.00019442
 H                  2.79949305    4.02047957   -0.87375546
 H                  2.79949784    4.02082392    0.87354716
 C                  0.38948328    2.79031592    1.25740657
 H                 -0.68051672    2.79034817    1.25741947
 H                  0.74617564    3.29470260    2.13105675
 C                  0.90277362    1.33837480    1.25739103
 H                  1.88777958    1.30830724    1.67423538
 H                  0.92894612    0.96931299    0.25339483
 C                 -0.03927055    0.46088450    2.10247302
 H                 -0.13045766    0.87779743    3.08368070
 H                 -1.00326433    0.42405735    1.63959102
 C                  0.53735719   -0.96364474    2.20155316
 H                  1.49477574   -0.92853424    2.67801612
 H                  0.64261600   -1.37492852    1.21937891
 C                 -0.41547621   -1.84676514    3.02847932
 H                 -1.37122821   -1.88645964    2.54903958
 H                 -0.52517854   -1.43236923    4.00885753
 C                  0.16514843   -3.26917501    3.13442833
 H                  0.27556726   -3.68328127    2.15400817
 H                  1.12055848   -3.22956845    3.61455639
 C                 -0.78822383   -4.15258468    3.96042391
 H                 -1.74343856   -4.19272346    3.47995155
 H                 -0.89915857   -3.73811794    4.94063348
 C                 -0.20713754   -5.57474632    4.06717124
 H                 -0.09618609   -5.98920601    3.08696057
 H                  0.74806929   -5.53460921    4.54765944
 C                 -1.16052225   -6.45816270    4.89314526
 H                 -2.11567919   -6.49843532    4.41256921
 H                 -1.27160523   -6.04361084    5.87330205
 C                 -0.57931827   -7.88026095    5.00009625
 H                 -0.46824630   -8.29481697    4.01993997
 H                  0.37584402   -7.83998658    5.48066152
 C                 -1.53269462   -8.76367282    5.82608474
 H                 -2.48783862   -8.80399656    5.34548726
 H                 -1.64381466   -8.34908285    6.80622121
 C                 -0.95144756  -10.18574785    5.93311029
 H                 -0.84033646  -10.60034115    4.95297422
 H                  0.00370081  -10.14542262    6.41369897
 C                 -1.90481710  -11.06915604    6.75911058
 H                 -2.85995690  -11.10950414    6.27850680
 H                 -2.01595060  -10.65454668    7.73923732
 C                 -1.32354990  -12.49122021    6.86617099
 H                 -1.21242383  -12.90583229    5.88604456
 H                 -0.36840646  -12.45087081    7.34676743
 C                 -2.27691377  -13.37462535    7.69218109
 H                 -3.23205283  -13.41498623    7.21157691
 H                 -2.38805120  -12.96000493    8.67230271
 C                 -1.69563631  -14.79668399    7.79925926
 H                 -1.58450254  -15.21130560    6.81913774
 H                 -0.74049541  -14.75632227    8.27985972
 C                 -2.64899734  -15.68008759    8.62527429
 H                 -3.60413578  -15.72045556    8.14466948
 H                 -2.24511875  -16.66813918    8.69967965
 H                 -2.76013739  -15.26546117    9.60539307

 1 2 1.0 3 1.0 4 1.0 5 1.0
 2
 3
 4
 5 6 1.0 7 1.0 11 1.0
 6
 7 8 1.0 9 1.0 10 1.0
 8
 9
 10
 11 12 1.0 13 1.0 14 1.0
 12
 13
 14 15 1.0 16 1.0 17 1.0
 15
 16
 17 18 1.0 19 1.0 20 1.0
 18
 19
 20 21 1.0 22 1.0 23 1.0
 21
 22
 23 24 1.0 25 1.0 26 1.0
 24
 25
 26 27 1.0 28 1.0 29 1.0
 27
 28
 29 30 1.0 31 1.0 32 1.0
 30
 31
 32 33 1.0 34 1.0 35 1.0
 33
 34
 35 36 1.0 37 1.0 38 1.0
 36
 37
 38 39 1.0 40 1.0 41 1.0
 39
 40
 41 42 1.0 43 1.0 44 1.0
 42
 43
 44 45 1.0 46 1.0 47 1.0
 45
 46
 47 48 1.0 49 1.0 50 1.0
 48
 49
 50 51 1.0 52 1.0 53 1.0
 51
 52
 53 54 1.0 55 1.0 56 1.0
 54
 55
 56 57 1.0 58 1.0 59 1.0
 57
 58
 59 60 1.0 61 1.0 62 1.0
 60
 61
 62

