%chk=F:\ResearchData\newGroupAdditivityFrog2\Template21\Gjfs\C9H18_100_r015.chk
# hf/3-21g geom=connectivity

Title Card Required

0 2
 C                 -1.90235688    0.75757575    0.00000000
 H                 -1.54568404    1.26197394   -0.87365150
 C                 -1.38904116   -0.69435641    0.00000000
 H                 -0.31904116   -0.69436905   -0.00000060
 H                 -1.74571326   -1.19875487    0.87365165
 C                 -3.44235688    0.75759472    0.00000000
 H                 -3.79902944    0.25317934    0.87364169
 H                 -3.79901079    1.76640490    0.00001924
 H                 -3.79902995    0.25321309   -0.87366097
 C                 -1.38901466    1.48353202    1.25740497
 H                 -1.74728362    0.98026402    2.13105517
 C                 -1.90003064    2.93627449    1.25599826
 H                 -2.88525769    2.96820366    1.67218113
 H                 -1.24491683    3.54537469    1.84312929
 H                 -1.92497380    3.30461772    0.25170692
 C                  0.15098274    1.48107512    1.25881307
 H                  0.68472031    1.31706617    0.34605611
 C                  0.83249957    1.68592432    2.41212944
 H                  0.30439077    1.83346874    3.33095028
 C                  2.37231738    1.70642421    2.40026044
 H                  2.74032348    0.72731334    2.17484212
 H                  2.71411725    2.39583975    1.65676931
 C                  2.89054464    2.14386881    3.78289660
 H                  2.52607794    1.47007994    4.52993916
 H                  3.96047475    2.13163995    3.78300413
 H                  2.54514805    3.13382522    3.99640888

 1 2 1.0 3 1.0 6 1.0 10 1.0
 2
 3 4 1.0 5 1.0
 4
 5
 6 7 1.0 8 1.0 9 1.0
 7
 8
 9
 10 11 1.0 12 1.0 16 1.0
 11
 12 13 1.0 14 1.0 15 1.0
 13
 14
 15
 16 17 1.0 18 2.0
 17
 18 19 1.0 20 1.0
 19
 20 21 1.0 22 1.0 23 1.0
 21
 22
 23 24 1.0 25 1.0 26 1.0
 24
 25
 26

