%mem=28GB
%nprocshared=12
%chk=C3H7OH_1_3_opt_M06.chk
#p M062X/def2TZVP

using ub3lyp/6-31G(d) to scan

0 1
C	1.902919	-0.125407	0.016831
H	2.056294	-0.814339	-0.822655
H	2.037084	-0.697271	0.943348
H	2.695383	0.629456	-0.024708
C	0.515907	0.522473	-0.044287
H	0.406338	1.236754	0.786110
H	0.404021	1.101445	-0.969540
C	-0.620921	-0.498280	0.026392
H	-0.536545	-1.091739	0.953075
H	-0.547758	-1.200921	-0.811395
O	-1.910316	0.093287	-0.088723
H	-2.019718	0.697610	0.661938





