%mem=28GB
%nprocshared=12
%chk=DMM3_10_13_1_scan_b3631gd.chk
#p ub3lyp/6-31g(d) opt=modredundant

using ub3lyp/6-31G(d) to scan

0 1
C -4.617673 -0.036143 0.000207
H -5.317181 -0.874478 -0.000154
H -4.799619 0.582386 -0.893449
H -4.799424 0.581452 0.894549
O -3.318364 -0.591361 -0.000224
C -2.324218 0.384014 0.000209
H -2.406184 1.032076 0.898689
H -2.406371 1.033071 -0.897538
O -1.111039 -0.311936 -0.000306
C 0.0 0.532956 9.6e-05
H -0.000122 1.186341 -0.897519
H 0.000122 1.185218 0.898525
O 1.111039 -0.311936 -0.000552
C 2.324218 0.384014 -0.00034
H 2.405828 1.033084 0.89745
H 2.406728 1.032063 -0.898777
O 3.318364 -0.591361 0.000696

D 9 10 13 14 S 40 10.0





