%mem=28GB
%nprocshared=12
%chk=C4H9OH_2_3_opt_M06.chk
#p M062X/def2TZVP

using ub3lyp/6-31G(d) to scan

0 1
C	-1.806323	-0.661009	-0.005040
H	-1.958252	-0.716758	1.081840
H	-1.827004	-1.685250	-0.395383
H	-2.644511	-0.106050	-0.438064
C	-0.483274	0.033838	-0.332881
H	-0.361437	0.072247	-1.423137
C	0.728677	-0.689926	0.271816
H	0.710207	-1.740580	-0.049284
H	0.613585	-0.705897	1.367550
C	2.067386	-0.048406	-0.102296
H	2.083678	1.006354	0.188310
H	2.903970	-0.557299	0.389179
H	2.236393	-0.095797	-1.185153
O	-0.519001	1.411277	0.056798
H	-0.643418	1.431829	1.020164





