%mem=28GB
%nprocshared=12
%chk=C4H9OOH_2_2_3_opt_M06.chk
#p M062X/def2TZVP

using ub3lyp/6-31G(d) to scan

0 1
C	0.387221	0.000318	0.036019
O	-0.726277	-0.055808	-0.891099
O	-1.972813	0.106256	-0.153695
H	-2.339785	-0.790216	-0.251594
C	0.409531	1.356285	0.748776
H	-0.489915	1.485819	1.356510
H	1.284915	1.432314	1.403782
H	0.451366	2.169271	0.016521
C	0.310887	-1.164550	1.029593
H	1.187818	-1.170641	1.686131
H	-0.581058	-1.078966	1.657292
H	0.276601	-2.121966	0.496903
C	1.583921	-0.152348	-0.910368
H	1.592126	0.652704	-1.651755
H	2.518214	-0.109724	-0.340788
H	1.543083	-1.110420	-1.438771





