%mem=6GB
%nprocshared=4
%chk=H2_2_SP_M06.chk
# M062X/def2TZVP

Title Card Required

0 1
 H                  0.00000000    0.00000000    0.37139400
 H                  0.00000000    0.00000000   -0.37139400


 
 
 
 