#p M062X/def2TZVP EmpiricalDispersion=GD3

Title Card Required

0 1
 H                  0.00000000    0.00000000    0.37142000
 H                  0.00000000    0.00000000   -0.37142000


 
 
 
 