%mem=28GB
%nprocshared=12
%chk=QOOH_1_7_10_2_scan_b3631gd.chk
#p ub3lyp/6-31g(d) opt=modredundant nosym

using ub3lyp/6-31G(d) to scan

0 2
O 1.84194100 -0.71914900 0.15683500
H 2.56348300 -0.39781300 0.71442100
O 1.31297800 0.54979700 -0.32276700
C -0.00056500 0.69050700 0.20720600
H -0.26825800 1.71625300 -0.06486000
H 0.03069500 0.61526700 1.30138600
C -1.00143900 -0.31110300 -0.38108700
H -1.02400200 -0.19217100 -1.46838900
H -0.59944400 -1.31767500 -0.18805100
C -2.36357200 -0.16729500 0.20170700
H -2.49677100 -0.07127300 1.27366300
H -3.25159300 -0.27042600 -0.40766800

D 4 7 10 12 S 40 10.0





